c THIS FORMULA IS GENERATED BY CNF
c 
c atomics
c X_PI <= 54.92_2_p:1
c X_PT <= 12.36_1_p:2
c C_3_4:3
c X_PI <= 48.12_3_p:4
c X_PI <= 54.92_1_n:5
c X_PI <= 42.09_1_n:6
c X_PT <= 14.55_2_p:7
c X_PI <= 48.12_1_p:8
c C_1_1:9
c X_PI <= 70.62_2_n:10
c X_PT <= 17.44_1_p:11
c C_3_1:12
c X_PI <= 54.92_2_n:13
c X_PT <= 17.44_1_s:14
c X_PT <= 8.31_3_n:15
c X_PT <= 17.44_3_p:16
c C_3_2:17
c X_PI <= 70.62_2_p:18
c C_2_3:19
c C_2_5:20
c X_PI <= 80.61_1_s:21
c X_PI <= 80.61_2_n:22
c X_PI <= 63.52_2_s:23
c X_PT <= 17.44_1_n:24
c C_3_3:25
c X_PI <= 80.61_2_s:26
c X_PI <= 42.09_3_s:27
c X_PT <= 14.55_1_s:28
c X_PI <= 48.12_1_n:29
c C_2_4:30
c C_1_2:31
c X_PI <= 54.92_3_n:32
c X_PI <= 80.61_1_n:33
c C_2_2:34
c X_PI <= 70.62_1_p:35
c X_PI <= 54.92_3_p:36
c X_PT <= 14.55_3_s:37
c X_PI <= 70.62_1_n:38
c X_PI <= 80.61_3_p:39
c X_PI <= 48.12_2_n:40
c X_PI <= 63.52_3_n:41
c C_1_3:42
c X_PI <= 48.12_2_s:43
c X_PI <= 70.62_2_s:44
c X_PI <= 63.52_1_p:45
c X_PI <= 42.09_3_p:46
c X_PT <= 8.31_3_s:47
c C_3_5:48
c X_PT <= 8.31_2_n:49
c C_1_5:50
c X_PI <= 42.09_1_p:51
c X_PT <= 14.55_3_p:52
c X_PI <= 48.12_1_s:53
c X_PI <= 70.62_3_n:54
c X_PT <= 8.31_3_p:55
c X_PI <= 54.92_1_s:56
c X_PI <= 63.52_3_s:57
c X_PT <= 17.44_2_p:58
c X_PT <= 8.31_2_p:59
c C_2_1:60
c X_PT <= 14.55_1_n:61
c X_PI <= 42.09_2_n:62
c X_PI <= 48.12_3_n:63
c X_PT <= 8.31_2_s:64
c X_PT <= 8.31_1_p:65
c X_PI <= 54.92_3_s:66
c X_PT <= 17.44_2_n:67
c C_1_4:68
c X_PI <= 54.92_2_s:69
c X_PI <= 70.62_3_s:70
c X_PI <= 63.52_3_p:71
c X_PT <= 12.36_2_n:72
c X_PI <= 63.52_1_s:73
c X_PI <= 70.62_3_p:74
c X_PT <= 17.44_2_s:75
c X_PI <= 70.62_1_s:76
c X_PI <= 48.12_3_s:77
c X_PT <= 17.44_3_n:78
c X_PI <= 42.09_3_n:79
c X_PI <= 80.61_3_n:80
c X_PI <= 42.09_1_s:81
c X_PT <= 14.55_3_n:82
c X_PT <= 12.36_1_s:83
c X_PI <= 54.92_1_p:84
c X_PT <= 14.55_1_p:85
c X_PI <= 48.12_2_p:86
c X_PI <= 63.52_2_n:87
c X_PT <= 12.36_3_n:88
c X_PT <= 12.36_2_p:89
c X_PI <= 80.61_2_p:90
c X_PT <= 8.31_1_s:91
c X_PI <= 63.52_2_p:92
c X_PT <= 12.36_3_s:93
c X_PT <= 12.36_3_p:94
c X_PT <= 17.44_3_s:95
c X_PI <= 42.09_2_s:96
c X_PT <= 12.36_1_n:97
c X_PI <= 42.09_2_p:98
c X_PI <= 63.52_1_n:99
c X_PT <= 8.31_1_n:100
c X_PT <= 12.36_2_s:101
c X_PT <= 14.55_2_n:102
c X_PI <= 80.61_3_s:103
c X_PT <= 14.55_2_s:104
c X_PI <= 80.61_1_p:105
c end atomics
p cnf 105 982
51 -51 -51 0
51 -51 -6 0
51 -51 81 0
51 6 -51 0
51 6 -6 0
51 6 81 0
51 -81 -51 0
51 -81 -6 0
51 -81 81 0
-6 -51 -51 0
-6 -51 -6 0
-6 -51 81 0
-6 6 -51 0
-6 6 -6 0
-6 6 81 0
-6 -81 -51 0
-6 -81 -6 0
-6 -81 81 0
-81 -51 -51 0
-81 -51 -6 0
-81 -51 81 0
-81 6 -51 0
-81 6 -6 0
-81 6 81 0
-81 -81 -51 0
-81 -81 -6 0
-81 -81 81 0
8 -8 -8 0
8 -8 -29 0
8 -8 53 0
8 29 -8 0
8 29 -29 0
8 29 53 0
8 -53 -8 0
8 -53 -29 0
8 -53 53 0
-29 -8 -8 0
-29 -8 -29 0
-29 -8 53 0
-29 29 -8 0
-29 29 -29 0
-29 29 53 0
-29 -53 -8 0
-29 -53 -29 0
-29 -53 53 0
-53 -8 -8 0
-53 -8 -29 0
-53 -8 53 0
-53 29 -8 0
-53 29 -29 0
-53 29 53 0
-53 -53 -8 0
-53 -53 -29 0
-53 -53 53 0
84 -84 -84 0
84 -84 -5 0
84 -84 56 0
84 5 -84 0
84 5 -5 0
84 5 56 0
84 -56 -84 0
84 -56 -5 0
84 -56 56 0
-5 -84 -84 0
-5 -84 -5 0
-5 -84 56 0
-5 5 -84 0
-5 5 -5 0
-5 5 56 0
-5 -56 -84 0
-5 -56 -5 0
-5 -56 56 0
-56 -84 -84 0
-56 -84 -5 0
-56 -84 56 0
-56 5 -84 0
-56 5 -5 0
-56 5 56 0
-56 -56 -84 0
-56 -56 -5 0
-56 -56 56 0
45 -45 -45 0
45 -45 -99 0
45 -45 73 0
45 99 -45 0
45 99 -99 0
45 99 73 0
45 -73 -45 0
45 -73 -99 0
45 -73 73 0
-99 -45 -45 0
-99 -45 -99 0
-99 -45 73 0
-99 99 -45 0
-99 99 -99 0
-99 99 73 0
-99 -73 -45 0
-99 -73 -99 0
-99 -73 73 0
-73 -45 -45 0
-73 -45 -99 0
-73 -45 73 0
-73 99 -45 0
-73 99 -99 0
-73 99 73 0
-73 -73 -45 0
-73 -73 -99 0
-73 -73 73 0
35 -35 -35 0
35 -35 -38 0
35 -35 76 0
35 38 -35 0
35 38 -38 0
35 38 76 0
35 -76 -35 0
35 -76 -38 0
35 -76 76 0
-38 -35 -35 0
-38 -35 -38 0
-38 -35 76 0
-38 38 -35 0
-38 38 -38 0
-38 38 76 0
-38 -76 -35 0
-38 -76 -38 0
-38 -76 76 0
-76 -35 -35 0
-76 -35 -38 0
-76 -35 76 0
-76 38 -35 0
-76 38 -38 0
-76 38 76 0
-76 -76 -35 0
-76 -76 -38 0
-76 -76 76 0
105 -105 -105 0
105 -105 -33 0
105 -105 21 0
105 33 -105 0
105 33 -33 0
105 33 21 0
105 -21 -105 0
105 -21 -33 0
105 -21 21 0
-33 -105 -105 0
-33 -105 -33 0
-33 -105 21 0
-33 33 -105 0
-33 33 -33 0
-33 33 21 0
-33 -21 -105 0
-33 -21 -33 0
-33 -21 21 0
-21 -105 -105 0
-21 -105 -33 0
-21 -105 21 0
-21 33 -105 0
-21 33 -33 0
-21 33 21 0
-21 -21 -105 0
-21 -21 -33 0
-21 -21 21 0
65 -65 -65 0
65 -65 -100 0
65 -65 91 0
65 100 -65 0
65 100 -100 0
65 100 91 0
65 -91 -65 0
65 -91 -100 0
65 -91 91 0
-100 -65 -65 0
-100 -65 -100 0
-100 -65 91 0
-100 100 -65 0
-100 100 -100 0
-100 100 91 0
-100 -91 -65 0
-100 -91 -100 0
-100 -91 91 0
-91 -65 -65 0
-91 -65 -100 0
-91 -65 91 0
-91 100 -65 0
-91 100 -100 0
-91 100 91 0
-91 -91 -65 0
-91 -91 -100 0
-91 -91 91 0
2 -2 -2 0
2 -2 -97 0
2 -2 83 0
2 97 -2 0
2 97 -97 0
2 97 83 0
2 -83 -2 0
2 -83 -97 0
2 -83 83 0
-97 -2 -2 0
-97 -2 -97 0
-97 -2 83 0
-97 97 -2 0
-97 97 -97 0
-97 97 83 0
-97 -83 -2 0
-97 -83 -97 0
-97 -83 83 0
-83 -2 -2 0
-83 -2 -97 0
-83 -2 83 0
-83 97 -2 0
-83 97 -97 0
-83 97 83 0
-83 -83 -2 0
-83 -83 -97 0
-83 -83 83 0
85 -85 -85 0
85 -85 -61 0
85 -85 28 0
85 61 -85 0
85 61 -61 0
85 61 28 0
85 -28 -85 0
85 -28 -61 0
85 -28 28 0
-61 -85 -85 0
-61 -85 -61 0
-61 -85 28 0
-61 61 -85 0
-61 61 -61 0
-61 61 28 0
-61 -28 -85 0
-61 -28 -61 0
-61 -28 28 0
-28 -85 -85 0
-28 -85 -61 0
-28 -85 28 0
-28 61 -85 0
-28 61 -61 0
-28 61 28 0
-28 -28 -85 0
-28 -28 -61 0
-28 -28 28 0
11 -11 -11 0
11 -11 -24 0
11 -11 14 0
11 24 -11 0
11 24 -24 0
11 24 14 0
11 -14 -11 0
11 -14 -24 0
11 -14 14 0
-24 -11 -11 0
-24 -11 -24 0
-24 -11 14 0
-24 24 -11 0
-24 24 -24 0
-24 24 14 0
-24 -14 -11 0
-24 -14 -24 0
-24 -14 14 0
-14 -11 -11 0
-14 -11 -24 0
-14 -11 14 0
-14 24 -11 0
-14 24 -24 0
-14 24 14 0
-14 -14 -11 0
-14 -14 -24 0
-14 -14 14 0
98 -98 -98 0
98 -98 -62 0
98 -98 96 0
98 62 -98 0
98 62 -62 0
98 62 96 0
98 -96 -98 0
98 -96 -62 0
98 -96 96 0
-62 -98 -98 0
-62 -98 -62 0
-62 -98 96 0
-62 62 -98 0
-62 62 -62 0
-62 62 96 0
-62 -96 -98 0
-62 -96 -62 0
-62 -96 96 0
-96 -98 -98 0
-96 -98 -62 0
-96 -98 96 0
-96 62 -98 0
-96 62 -62 0
-96 62 96 0
-96 -96 -98 0
-96 -96 -62 0
-96 -96 96 0
86 -86 -86 0
86 -86 -40 0
86 -86 43 0
86 40 -86 0
86 40 -40 0
86 40 43 0
86 -43 -86 0
86 -43 -40 0
86 -43 43 0
-40 -86 -86 0
-40 -86 -40 0
-40 -86 43 0
-40 40 -86 0
-40 40 -40 0
-40 40 43 0
-40 -43 -86 0
-40 -43 -40 0
-40 -43 43 0
-43 -86 -86 0
-43 -86 -40 0
-43 -86 43 0
-43 40 -86 0
-43 40 -40 0
-43 40 43 0
-43 -43 -86 0
-43 -43 -40 0
-43 -43 43 0
1 -1 -1 0
1 -1 -13 0
1 -1 69 0
1 13 -1 0
1 13 -13 0
1 13 69 0
1 -69 -1 0
1 -69 -13 0
1 -69 69 0
-13 -1 -1 0
-13 -1 -13 0
-13 -1 69 0
-13 13 -1 0
-13 13 -13 0
-13 13 69 0
-13 -69 -1 0
-13 -69 -13 0
-13 -69 69 0
-69 -1 -1 0
-69 -1 -13 0
-69 -1 69 0
-69 13 -1 0
-69 13 -13 0
-69 13 69 0
-69 -69 -1 0
-69 -69 -13 0
-69 -69 69 0
92 -92 -92 0
92 -92 -87 0
92 -92 23 0
92 87 -92 0
92 87 -87 0
92 87 23 0
92 -23 -92 0
92 -23 -87 0
92 -23 23 0
-87 -92 -92 0
-87 -92 -87 0
-87 -92 23 0
-87 87 -92 0
-87 87 -87 0
-87 87 23 0
-87 -23 -92 0
-87 -23 -87 0
-87 -23 23 0
-23 -92 -92 0
-23 -92 -87 0
-23 -92 23 0
-23 87 -92 0
-23 87 -87 0
-23 87 23 0
-23 -23 -92 0
-23 -23 -87 0
-23 -23 23 0
18 -18 -18 0
18 -18 -10 0
18 -18 44 0
18 10 -18 0
18 10 -10 0
18 10 44 0
18 -44 -18 0
18 -44 -10 0
18 -44 44 0
-10 -18 -18 0
-10 -18 -10 0
-10 -18 44 0
-10 10 -18 0
-10 10 -10 0
-10 10 44 0
-10 -44 -18 0
-10 -44 -10 0
-10 -44 44 0
-44 -18 -18 0
-44 -18 -10 0
-44 -18 44 0
-44 10 -18 0
-44 10 -10 0
-44 10 44 0
-44 -44 -18 0
-44 -44 -10 0
-44 -44 44 0
90 -90 -90 0
90 -90 -22 0
90 -90 26 0
90 22 -90 0
90 22 -22 0
90 22 26 0
90 -26 -90 0
90 -26 -22 0
90 -26 26 0
-22 -90 -90 0
-22 -90 -22 0
-22 -90 26 0
-22 22 -90 0
-22 22 -22 0
-22 22 26 0
-22 -26 -90 0
-22 -26 -22 0
-22 -26 26 0
-26 -90 -90 0
-26 -90 -22 0
-26 -90 26 0
-26 22 -90 0
-26 22 -22 0
-26 22 26 0
-26 -26 -90 0
-26 -26 -22 0
-26 -26 26 0
59 -59 -59 0
59 -59 -49 0
59 -59 64 0
59 49 -59 0
59 49 -49 0
59 49 64 0
59 -64 -59 0
59 -64 -49 0
59 -64 64 0
-49 -59 -59 0
-49 -59 -49 0
-49 -59 64 0
-49 49 -59 0
-49 49 -49 0
-49 49 64 0
-49 -64 -59 0
-49 -64 -49 0
-49 -64 64 0
-64 -59 -59 0
-64 -59 -49 0
-64 -59 64 0
-64 49 -59 0
-64 49 -49 0
-64 49 64 0
-64 -64 -59 0
-64 -64 -49 0
-64 -64 64 0
89 -89 -89 0
89 -89 -72 0
89 -89 101 0
89 72 -89 0
89 72 -72 0
89 72 101 0
89 -101 -89 0
89 -101 -72 0
89 -101 101 0
-72 -89 -89 0
-72 -89 -72 0
-72 -89 101 0
-72 72 -89 0
-72 72 -72 0
-72 72 101 0
-72 -101 -89 0
-72 -101 -72 0
-72 -101 101 0
-101 -89 -89 0
-101 -89 -72 0
-101 -89 101 0
-101 72 -89 0
-101 72 -72 0
-101 72 101 0
-101 -101 -89 0
-101 -101 -72 0
-101 -101 101 0
7 -7 -7 0
7 -7 -102 0
7 -7 104 0
7 102 -7 0
7 102 -102 0
7 102 104 0
7 -104 -7 0
7 -104 -102 0
7 -104 104 0
-102 -7 -7 0
-102 -7 -102 0
-102 -7 104 0
-102 102 -7 0
-102 102 -102 0
-102 102 104 0
-102 -104 -7 0
-102 -104 -102 0
-102 -104 104 0
-104 -7 -7 0
-104 -7 -102 0
-104 -7 104 0
-104 102 -7 0
-104 102 -102 0
-104 102 104 0
-104 -104 -7 0
-104 -104 -102 0
-104 -104 104 0
58 -58 -58 0
58 -58 -67 0
58 -58 75 0
58 67 -58 0
58 67 -67 0
58 67 75 0
58 -75 -58 0
58 -75 -67 0
58 -75 75 0
-67 -58 -58 0
-67 -58 -67 0
-67 -58 75 0
-67 67 -58 0
-67 67 -67 0
-67 67 75 0
-67 -75 -58 0
-67 -75 -67 0
-67 -75 75 0
-75 -58 -58 0
-75 -58 -67 0
-75 -58 75 0
-75 67 -58 0
-75 67 -67 0
-75 67 75 0
-75 -75 -58 0
-75 -75 -67 0
-75 -75 75 0
46 -46 -46 0
46 -46 -79 0
46 -46 27 0
46 79 -46 0
46 79 -79 0
46 79 27 0
46 -27 -46 0
46 -27 -79 0
46 -27 27 0
-79 -46 -46 0
-79 -46 -79 0
-79 -46 27 0
-79 79 -46 0
-79 79 -79 0
-79 79 27 0
-79 -27 -46 0
-79 -27 -79 0
-79 -27 27 0
-27 -46 -46 0
-27 -46 -79 0
-27 -46 27 0
-27 79 -46 0
-27 79 -79 0
-27 79 27 0
-27 -27 -46 0
-27 -27 -79 0
-27 -27 27 0
4 -4 -4 0
4 -4 -63 0
4 -4 77 0
4 63 -4 0
4 63 -63 0
4 63 77 0
4 -77 -4 0
4 -77 -63 0
4 -77 77 0
-63 -4 -4 0
-63 -4 -63 0
-63 -4 77 0
-63 63 -4 0
-63 63 -63 0
-63 63 77 0
-63 -77 -4 0
-63 -77 -63 0
-63 -77 77 0
-77 -4 -4 0
-77 -4 -63 0
-77 -4 77 0
-77 63 -4 0
-77 63 -63 0
-77 63 77 0
-77 -77 -4 0
-77 -77 -63 0
-77 -77 77 0
36 -36 -36 0
36 -36 -32 0
36 -36 66 0
36 32 -36 0
36 32 -32 0
36 32 66 0
36 -66 -36 0
36 -66 -32 0
36 -66 66 0
-32 -36 -36 0
-32 -36 -32 0
-32 -36 66 0
-32 32 -36 0
-32 32 -32 0
-32 32 66 0
-32 -66 -36 0
-32 -66 -32 0
-32 -66 66 0
-66 -36 -36 0
-66 -36 -32 0
-66 -36 66 0
-66 32 -36 0
-66 32 -32 0
-66 32 66 0
-66 -66 -36 0
-66 -66 -32 0
-66 -66 66 0
71 -71 -71 0
71 -71 -41 0
71 -71 57 0
71 41 -71 0
71 41 -41 0
71 41 57 0
71 -57 -71 0
71 -57 -41 0
71 -57 57 0
-41 -71 -71 0
-41 -71 -41 0
-41 -71 57 0
-41 41 -71 0
-41 41 -41 0
-41 41 57 0
-41 -57 -71 0
-41 -57 -41 0
-41 -57 57 0
-57 -71 -71 0
-57 -71 -41 0
-57 -71 57 0
-57 41 -71 0
-57 41 -41 0
-57 41 57 0
-57 -57 -71 0
-57 -57 -41 0
-57 -57 57 0
74 -74 -74 0
74 -74 -54 0
74 -74 70 0
74 54 -74 0
74 54 -54 0
74 54 70 0
74 -70 -74 0
74 -70 -54 0
74 -70 70 0
-54 -74 -74 0
-54 -74 -54 0
-54 -74 70 0
-54 54 -74 0
-54 54 -54 0
-54 54 70 0
-54 -70 -74 0
-54 -70 -54 0
-54 -70 70 0
-70 -74 -74 0
-70 -74 -54 0
-70 -74 70 0
-70 54 -74 0
-70 54 -54 0
-70 54 70 0
-70 -70 -74 0
-70 -70 -54 0
-70 -70 70 0
39 -39 -39 0
39 -39 -80 0
39 -39 103 0
39 80 -39 0
39 80 -80 0
39 80 103 0
39 -103 -39 0
39 -103 -80 0
39 -103 103 0
-80 -39 -39 0
-80 -39 -80 0
-80 -39 103 0
-80 80 -39 0
-80 80 -80 0
-80 80 103 0
-80 -103 -39 0
-80 -103 -80 0
-80 -103 103 0
-103 -39 -39 0
-103 -39 -80 0
-103 -39 103 0
-103 80 -39 0
-103 80 -80 0
-103 80 103 0
-103 -103 -39 0
-103 -103 -80 0
-103 -103 103 0
55 -55 -55 0
55 -55 -15 0
55 -55 47 0
55 15 -55 0
55 15 -15 0
55 15 47 0
55 -47 -55 0
55 -47 -15 0
55 -47 47 0
-15 -55 -55 0
-15 -55 -15 0
-15 -55 47 0
-15 15 -55 0
-15 15 -15 0
-15 15 47 0
-15 -47 -55 0
-15 -47 -15 0
-15 -47 47 0
-47 -55 -55 0
-47 -55 -15 0
-47 -55 47 0
-47 15 -55 0
-47 15 -15 0
-47 15 47 0
-47 -47 -55 0
-47 -47 -15 0
-47 -47 47 0
94 -94 -94 0
94 -94 -88 0
94 -94 93 0
94 88 -94 0
94 88 -88 0
94 88 93 0
94 -93 -94 0
94 -93 -88 0
94 -93 93 0
-88 -94 -94 0
-88 -94 -88 0
-88 -94 93 0
-88 88 -94 0
-88 88 -88 0
-88 88 93 0
-88 -93 -94 0
-88 -93 -88 0
-88 -93 93 0
-93 -94 -94 0
-93 -94 -88 0
-93 -94 93 0
-93 88 -94 0
-93 88 -88 0
-93 88 93 0
-93 -93 -94 0
-93 -93 -88 0
-93 -93 93 0
52 -52 -52 0
52 -52 -82 0
52 -52 37 0
52 82 -52 0
52 82 -82 0
52 82 37 0
52 -37 -52 0
52 -37 -82 0
52 -37 37 0
-82 -52 -52 0
-82 -52 -82 0
-82 -52 37 0
-82 82 -52 0
-82 82 -82 0
-82 82 37 0
-82 -37 -52 0
-82 -37 -82 0
-82 -37 37 0
-37 -52 -52 0
-37 -52 -82 0
-37 -52 37 0
-37 82 -52 0
-37 82 -82 0
-37 82 37 0
-37 -37 -52 0
-37 -37 -82 0
-37 -37 37 0
16 -16 -16 0
16 -16 -78 0
16 -16 95 0
16 78 -16 0
16 78 -78 0
16 78 95 0
16 -95 -16 0
16 -95 -78 0
16 -95 95 0
-78 -16 -16 0
-78 -16 -78 0
-78 -16 95 0
-78 78 -16 0
-78 78 -78 0
-78 78 95 0
-78 -95 -16 0
-78 -95 -78 0
-78 -95 95 0
-95 -16 -16 0
-95 -16 -78 0
-95 -16 95 0
-95 78 -16 0
-95 78 -78 0
-95 78 95 0
-95 -95 -16 0
-95 -95 -78 0
-95 -95 95 0
-81 -53 -56 -73 -76 -21 -91 -83 -28 -14 0
-96 -43 -69 -23 -44 -26 -64 -101 -104 -75 0
-27 -77 -66 -57 -70 -103 -47 -93 -37 -95 0
51 8 5 99 38 33 65 97 61 24 0
98 86 13 87 10 22 59 72 102 67 0
46 4 32 41 54 80 55 88 82 78 0
51 8 84 45 35 33 65 2 85 24 0
98 86 1 92 18 22 59 89 7 67 0
46 4 36 71 74 80 55 94 52 78 0
51 29 5 99 38 33 65 2 61 24 0
98 40 13 87 10 22 59 89 102 67 0
46 63 32 41 54 80 55 94 82 78 0
6 29 5 99 38 33 100 97 61 24 0
62 40 13 87 10 22 49 72 102 67 0
79 63 32 41 54 80 15 88 82 78 0
51 8 5 99 38 33 100 97 61 11 0
98 86 13 87 10 22 49 72 102 58 0
46 4 32 41 54 80 15 88 82 16 0
-51 -9 0
-8 -9 0
-84 -9 0
-45 -9 0
-35 -9 0
-105 -9 0
-65 -9 0
-2 -9 0
-85 -9 0
-11 -9 0
-98 -60 0
-86 -60 0
-1 -60 0
-92 -60 0
-18 -60 0
-90 -60 0
-59 -60 0
-89 -60 0
-7 -60 0
-58 -60 0
-46 -12 0
-4 -12 0
-36 -12 0
-71 -12 0
-74 -12 0
-39 -12 0
-55 -12 0
-94 -12 0
-52 -12 0
-16 -12 0
-51 -31 0
-8 -31 0
-84 -31 0
-45 -31 0
-35 -31 0
-33 -31 0
-65 -31 0
-2 -31 0
-85 -31 0
-11 -31 0
-98 -34 0
-86 -34 0
-1 -34 0
-92 -34 0
-18 -34 0
-22 -34 0
-59 -34 0
-89 -34 0
-7 -34 0
-58 -34 0
-46 -17 0
-4 -17 0
-36 -17 0
-71 -17 0
-74 -17 0
-80 -17 0
-55 -17 0
-94 -17 0
-52 -17 0
-16 -17 0
-51 -42 0
-8 -42 0
-84 -42 0
-45 -42 0
-38 -42 0
-33 -42 0
-65 -42 0
-2 -42 0
-61 -42 0
-24 -42 0
-98 -19 0
-86 -19 0
-1 -19 0
-92 -19 0
-10 -19 0
-22 -19 0
-59 -19 0
-89 -19 0
-102 -19 0
-67 -19 0
-46 -25 0
-4 -25 0
-36 -25 0
-71 -25 0
-54 -25 0
-80 -25 0
-55 -25 0
-94 -25 0
-82 -25 0
-78 -25 0
-51 -68 0
-8 -68 0
-5 -68 0
-99 -68 0
-38 -68 0
-33 -68 0
-100 -68 0
-97 -68 0
-61 -68 0
-24 -68 0
-98 -30 0
-86 -30 0
-13 -30 0
-87 -30 0
-10 -30 0
-22 -30 0
-49 -30 0
-72 -30 0
-102 -30 0
-67 -30 0
-46 -3 0
-4 -3 0
-32 -3 0
-41 -3 0
-54 -3 0
-80 -3 0
-15 -3 0
-88 -3 0
-82 -3 0
-78 -3 0
-6 -50 0
-8 -50 0
-84 -50 0
-45 -50 0
-35 -50 0
-33 -50 0
-65 -50 0
-2 -50 0
-85 -50 0
-11 -50 0
-62 -20 0
-86 -20 0
-1 -20 0
-92 -20 0
-18 -20 0
-22 -20 0
-59 -20 0
-89 -20 0
-7 -20 0
-58 -20 0
-79 -48 0
-4 -48 0
-36 -48 0
-71 -48 0
-74 -48 0
-80 -48 0
-55 -48 0
-94 -48 0
-52 -48 0
-16 -48 0
9 60 12 0
31 34 17 0
42 19 25 0
68 30 3 0
50 20 48 0
